
Log started (V11.0.0) Mon Apr 14 10:32:14 2008

Tried aggregator 1 time.
Reduced MIP has 530 rows, 15001 columns, and 30030 nonzeros.
Presolve time =    0.09 sec.
Clique table members: 500.
MIP emphasis: balance optimality and feasibility.
MIP search method: dynamic search.
Parallel mode: none, using 1 thread.
Root relaxation solution time =    0.44 sec.

        Nodes                                         Cuts/
   Node  Left     Objective  IInf  Best Integer     Best Node    ItCnt     Gap

*     0+    0                        25083.0000       66.7476     1093   99.73%
*     0+    0                           80.0000       66.7476     1093   16.57%
      0     0       67.0000    52       80.0000      Fract: 9     1145   16.25%
*     0+    0                           79.0000       67.0000     1145   15.19%
*     0+    0                           78.0000       67.0000     1145   14.10%
*     0+    0                           74.0000       67.0000     1145    9.46%
*     0+    0                           71.0000       67.0000     1145    5.63%

Repeating presolve.
Tried aggregator 1 time.
MIP Presolve eliminated 0 rows and 4557 columns.
Reduced MIP has 530 rows, 10444 columns, and 20916 nonzeros.
Tried aggregator 1 time.
Represolve time =    0.44 sec.
Clique table members: 859.
MIP emphasis: balance optimality and feasibility.
MIP search method: dynamic search.
Parallel mode: none, using 1 thread.
Root relaxation solution time =    0.25 sec.

        Nodes                                         Cuts/
   Node  Left     Objective  IInf  Best Integer     Best Node    ItCnt     Gap

      0     0       67.0000    51       71.0000       67.0000      945    5.63%
*     0+    0                           70.0000       67.0000      945    4.29%
      0     2       67.0000    51       70.0000       67.0000      945    4.29%
    100    91       68.0000    52       70.0000       67.0000     6074    4.29%
    200   162       69.0000    46       70.0000       67.0000    15051    4.29%
*   250+   27                           68.0000       67.0000    18134    1.47%
    300     3    infeasible             68.0000       67.0000    45822    1.47%

Cover cuts applied:  134
Gomory fractional cuts applied:  2

Solution pool: 8 solutions saved.

MIP - Integer optimal solution:  Objective = 6.8000000000e+001
Solution time =   33.02 sec.  Iterations = 48991  Nodes = 304


Incumbent solution
Variable Name           Solution Value
Cmax                         68.000000
X_1_15                        1.000000
X_2_2                         1.000000
X_3_30                        1.000000
X_4_25                        1.000000
X_5_9                         1.000000
X_6_21                        1.000000
X_7_30                        1.000000
X_8_6                         1.000000
X_9_5                         1.000000
X_10_21                       1.000000
X_11_24                       1.000000
X_12_25                       1.000000
X_13_13                       1.000000
X_14_4                        1.000000
X_15_14                       1.000000
X_16_10                       1.000000
X_17_18                       1.000000
X_18_19                       1.000000
X_19_29                       1.000000
X_20_10                       1.000000
X_21_7                        1.000000
X_22_18                       1.000000
X_23_27                       1.000000
X_24_26                       1.000000
X_25_16                       1.000000
X_26_16                       1.000000
X_27_12                       1.000000
X_28_15                       1.000000
X_29_9                        1.000000
X_30_19                       1.000000
X_31_26                       1.000000
X_32_22                       1.000000
X_33_7                        1.000000
X_34_26                       1.000000
X_35_29                       1.000000
X_36_3                        1.000000
X_37_11                       1.000000
X_38_18                       1.000000
X_39_1                        1.000000
X_40_3                        1.000000
X_41_29                       1.000000
X_42_19                       1.000000
X_43_28                       1.000000
X_44_2                        1.000000
X_45_14                       1.000000
X_46_2                        1.000000
X_47_12                       1.000000
X_48_18                       1.000000
X_49_16                       1.000000
X_50_18                       1.000000
X_51_29                       1.000000
X_52_2                        1.000000
X_53_29                       1.000000
X_54_28                       1.000000
X_55_16                       1.000000
X_56_8                        1.000000
X_57_16                       1.000000
X_58_3                        1.000000
X_59_13                       1.000000
X_60_21                       1.000000
X_61_6                        1.000000
X_62_9                        1.000000
X_63_16                       1.000000
X_64_22                       1.000000
X_65_17                       1.000000
X_66_2                        1.000000
X_67_7                        1.000000
X_68_18                       1.000000
X_69_9                        1.000000
X_70_5                        1.000000
X_71_10                       1.000000
X_72_6                        1.000000
X_73_27                       1.000000
X_74_28                       1.000000
X_75_8                        1.000000
X_76_21                       1.000000
X_77_11                       1.000000
X_78_6                        1.000000
X_79_8                        1.000000
X_80_18                       1.000000
X_81_9                        1.000000
X_82_11                       1.000000
X_83_7                        1.000000
X_84_5                        1.000000
X_85_3                        1.000000
X_86_18                       1.000000
X_87_9                        1.000000
X_88_26                       1.000000
X_89_8                        1.000000
X_90_30                       1.000000
X_91_2                        1.000000
X_92_24                       1.000000
X_93_22                       1.000000
X_94_6                        1.000000
X_95_22                       1.000000
X_96_1                        1.000000
X_97_22                       1.000000
X_98_7                        1.000000
X_99_2                        1.000000
X_100_8                       1.000000
X_101_2                       1.000000
X_102_13                      1.000000
X_103_4                       1.000000
X_104_29                      1.000000
X_105_20                      1.000000
X_106_19                      1.000000
X_107_14                      1.000000
X_108_24                      1.000000
X_109_8                       1.000000
X_110_27                      1.000000
X_111_27                      1.000000
X_112_3                       1.000000
X_113_10                      1.000000
X_114_3                       1.000000
X_115_1                       1.000000
X_116_3                       1.000000
X_117_6                       1.000000
X_118_17                      1.000000
X_119_4                       1.000000
X_120_14                      1.000000
X_121_7                       1.000000
X_122_1                       1.000000
X_123_22                      1.000000
X_124_30                      1.000000
X_125_5                       1.000000
X_126_29                      1.000000
X_127_15                      1.000000
X_128_11                      1.000000
X_129_12                      1.000000
X_130_7                       1.000000
X_131_21                      1.000000
X_132_15                      1.000000
X_133_7                       1.000000
X_134_22                      1.000000
X_135_24                      1.000000
X_136_12                      1.000000
X_137_14                      1.000000
X_138_28                      1.000000
X_139_4                       1.000000
X_140_12                      1.000000
X_141_1                       1.000000
X_142_5                       1.000000
X_143_25                      1.000000
X_144_24                      1.000000
X_145_7                       1.000000
X_146_30                      1.000000
X_147_4                       1.000000
X_148_12                      1.000000
X_149_12                      1.000000
X_150_27                      1.000000
X_151_23                      1.000000
X_152_14                      1.000000
X_153_19                      1.000000
X_154_12                      1.000000
X_155_10                      1.000000
X_156_14                      1.000000
X_157_10                      1.000000
X_158_18                      1.000000
X_159_2                       1.000000
X_160_28                      1.000000
X_161_25                      1.000000
X_162_20                      1.000000
X_163_16                      1.000000
X_164_2                       1.000000
X_165_17                      1.000000
X_166_28                      1.000000
X_167_29                      1.000000
X_168_16                      1.000000
X_169_24                      1.000000
X_170_1                       1.000000
X_171_6                       1.000000
X_172_11                      1.000000
X_173_27                      1.000000
X_174_13                      1.000000
X_175_29                      1.000000
X_176_12                      1.000000
X_177_24                      1.000000
X_178_9                       1.000000
X_179_8                       1.000000
X_180_24                      1.000000
X_181_2                       1.000000
X_182_19                      1.000000
X_183_7                       1.000000
X_184_22                      1.000000
X_185_8                       1.000000
X_186_25                      1.000000
X_187_30                      1.000000
X_188_19                      1.000000
X_189_19                      1.000000
X_190_21                      1.000000
X_191_11                      1.000000
X_192_30                      1.000000
X_193_5                       1.000000
X_194_5                       1.000000
X_195_6                       1.000000
X_196_14                      1.000000
X_197_30                      1.000000
X_198_8                       1.000000
X_199_11                      1.000000
X_200_14                      1.000000
X_201_7                       1.000000
X_202_6                       1.000000
X_203_17                      1.000000
X_204_29                      1.000000
X_205_25                      1.000000
X_206_23                      1.000000
X_207_17                      1.000000
X_208_9                       1.000000
X_209_14                      1.000000
X_210_19                      1.000000
X_211_12                      1.000000
X_212_14                      1.000000
X_213_15                      1.000000
X_214_9                       1.000000
X_215_23                      1.000000
X_216_16                      1.000000
X_217_12                      1.000000
X_218_27                      1.000000
X_219_29                      1.000000
X_220_25                      1.000000
X_221_12                      1.000000
X_222_27                      1.000000
X_223_18                      1.000000
X_224_28                      1.000000
X_225_23                      1.000000
X_226_25                      1.000000
X_227_24                      1.000000
X_228_6                       1.000000
X_229_2                       1.000000
X_230_8                       1.000000
X_231_24                      1.000000
X_232_17                      1.000000
X_233_26                      1.000000
X_234_3                       1.000000
X_235_18                      1.000000
X_236_30                      1.000000
X_237_12                      1.000000
X_238_8                       1.000000
X_239_4                       1.000000
X_240_29                      1.000000
X_241_8                       1.000000
X_242_25                      1.000000
X_243_6                       1.000000
X_244_27                      1.000000
X_245_30                      1.000000
X_246_6                       1.000000
X_247_28                      1.000000
X_248_17                      1.000000
X_249_14                      1.000000
X_250_10                      1.000000
X_251_14                      1.000000
X_252_9                       1.000000
X_253_12                      1.000000
X_254_23                      1.000000
X_255_20                      1.000000
X_256_4                       1.000000
X_257_13                      1.000000
X_258_28                      1.000000
X_259_1                       1.000000
X_260_20                      1.000000
X_261_21                      1.000000
X_262_18                      1.000000
X_263_13                      1.000000
X_264_11                      1.000000
X_265_28                      1.000000
X_266_12                      1.000000
X_267_10                      1.000000
X_268_3                       1.000000
X_269_1                       1.000000
X_270_30                      1.000000
X_271_3                       1.000000
X_272_1                       1.000000
X_273_3                       1.000000
X_274_1                       1.000000
X_275_30                      1.000000
X_276_25                      1.000000
X_277_22                      1.000000
X_278_21                      1.000000
X_279_15                      1.000000
X_280_11                      1.000000
X_281_20                      1.000000
X_282_21                      1.000000
X_283_18                      1.000000
X_284_11                      1.000000
X_285_5                       1.000000
X_286_6                       1.000000
X_287_25                      1.000000
X_288_6                       1.000000
X_289_18                      1.000000
X_290_5                       1.000000
X_291_19                      1.000000
X_292_13                      1.000000
X_293_12                      1.000000
X_294_26                      1.000000
X_295_22                      1.000000
X_296_2                       1.000000
X_297_14                      1.000000
X_298_19                      1.000000
X_299_21                      1.000000
X_300_7                       1.000000
X_301_27                      1.000000
X_302_23                      1.000000
X_303_20                      1.000000
X_304_28                      1.000000
X_305_9                       1.000000
X_306_11                      1.000000
X_307_20                      1.000000
X_308_28                      1.000000
X_309_13                      1.000000
X_310_27                      1.000000
X_311_24                      1.000000
X_312_20                      1.000000
X_313_4                       1.000000
X_314_18                      1.000000
X_315_16                      1.000000
X_316_17                      1.000000
X_317_15                      1.000000
X_318_24                      1.000000
X_319_24                      1.000000
X_320_15                      1.000000
X_321_23                      1.000000
X_322_25                      1.000000
X_323_26                      1.000000
X_324_18                      1.000000
X_325_19                      1.000000
X_326_14                      1.000000
X_327_16                      1.000000
X_328_11                      1.000000
X_329_23                      1.000000
X_330_26                      1.000000
X_331_5                       1.000000
X_332_27                      1.000000
X_333_26                      1.000000
X_334_3                       1.000000
X_335_27                      1.000000
X_336_29                      1.000000
X_337_2                       1.000000
X_338_24                      1.000000
X_339_1                       1.000000
X_340_5                       1.000000
X_341_9                       1.000000
X_342_27                      1.000000
X_343_23                      1.000000
X_344_19                      1.000000
X_345_19                      1.000000
X_346_11                      1.000000
X_347_22                      1.000000
X_348_24                      1.000000
X_349_23                      1.000000
X_350_3                       1.000000
X_351_9                       1.000000
X_352_16                      1.000000
X_353_1                       1.000000
X_354_3                       1.000000
X_355_4                       1.000000
X_356_22                      1.000000
X_357_30                      1.000000
X_358_8                       1.000000
X_359_27                      1.000000
X_360_29                      1.000000
X_361_12                      1.000000
X_362_29                      1.000000
X_363_17                      1.000000
X_364_22                      1.000000
X_365_29                      1.000000
X_366_16                      1.000000
X_367_16                      1.000000
X_368_10                      1.000000
X_369_7                       1.000000
X_370_25                      1.000000
X_371_10                      1.000000
X_372_6                       1.000000
X_373_2                       1.000000
X_374_12                      1.000000
X_375_16                      1.000000
X_376_8                       1.000000
X_377_21                      1.000000
X_378_10                      1.000000
X_379_9                       1.000000
X_380_1                       1.000000
X_381_28                      1.000000
X_382_21                      1.000000
X_383_22                      1.000000
X_384_6                       1.000000
X_385_5                       1.000000
X_386_2                       1.000000
X_387_20                      1.000000
X_388_22                      1.000000
X_389_11                      1.000000
X_390_15                      1.000000
X_391_4                       1.000000
X_392_16                      1.000000
X_393_12                      1.000000
X_394_24                      1.000000
X_395_19                      1.000000
X_396_28                      1.000000
X_397_23                      1.000000
X_398_14                      1.000000
X_399_5                       1.000000
X_400_10                      1.000000
X_401_22                      1.000000
X_402_26                      1.000000
X_403_28                      1.000000
X_404_2                       1.000000
X_405_19                      1.000000
X_406_20                      1.000000
X_407_11                      1.000000
X_408_30                      1.000000
X_409_6                       1.000000
X_410_16                      1.000000
X_411_11                      1.000000
X_412_13                      1.000000
X_413_1                       1.000000
X_414_15                      1.000000
X_415_30                      1.000000
X_416_4                       1.000000
X_417_24                      1.000000
X_418_24                      1.000000
X_419_18                      1.000000
X_420_2                       1.000000
X_421_12                      1.000000
X_422_20                      1.000000
X_423_26                      1.000000
X_424_13                      1.000000
X_425_23                      1.000000
X_426_25                      1.000000
X_427_17                      1.000000
X_428_20                      1.000000
X_429_30                      1.000000
X_430_18                      1.000000
X_431_12                      1.000000
X_432_12                      1.000000
X_433_10                      1.000000
X_434_10                      1.000000
X_435_14                      1.000000
X_436_3                       1.000000
X_437_25                      1.000000
X_438_13                      1.000000
X_439_4                       1.000000
X_440_27                      1.000000
X_441_25                      1.000000
X_442_20                      1.000000
X_443_28                      1.000000
X_444_15                      1.000000
X_445_24                      1.000000
X_446_18                      1.000000
X_447_9                       1.000000
X_448_18                      1.000000
X_449_29                      1.000000
X_450_17                      1.000000
X_451_13                      1.000000
X_452_11                      1.000000
X_453_21                      1.000000
X_454_21                      1.000000
X_455_18                      1.000000
X_456_13                      1.000000
X_457_19                      1.000000
X_458_15                      1.000000
X_459_2                       1.000000
X_460_29                      1.000000
X_461_10                      1.000000
X_462_21                      1.000000
X_463_8                       1.000000
X_464_5                       1.000000
X_465_15                      1.000000
X_466_15                      1.000000
X_467_30                      1.000000
X_468_4                       1.000000
X_469_8                       1.000000
X_470_3                       1.000000
X_471_26                      1.000000
X_472_14                      1.000000
X_473_29                      1.000000
X_474_10                      1.000000
X_475_27                      1.000000
X_476_11                      1.000000
X_477_20                      1.000000
X_478_1                       1.000000
X_479_28                      1.000000
X_480_27                      1.000000
X_481_5                       1.000000
X_482_13                      1.000000
X_483_1                       1.000000
X_484_10                      1.000000
X_485_21                      1.000000
X_486_21                      1.000000
X_487_10                      1.000000
X_488_3                       1.000000
X_489_25                      1.000000
X_490_16                      1.000000
X_491_7                       1.000000
X_492_20                      1.000000
X_493_27                      1.000000
X_494_6                       1.000000
X_495_4                       1.000000
X_496_20                      1.000000
X_497_4                       1.000000
X_498_27                      1.000000
X_499_7                       1.000000
X_500_21                      1.000000
All other variables in the range 1-15001 are 0.
